(set-logic QF_NRA)
(declare-fun a () Real)
(declare-fun b () Real)
(declare-fun r () Real)
(declare-fun u () Real)
(declare-fun v () Real)
(assert (and (> r 0) (> (- r 1) 0) (> (+ u 1) 0) (< (- u v) 0) (< (- v 1) 0) (= (- (+ (* 3 (* u u)) (* 2 (* r u))) a) 0) (= (- (+ (* 3 (* v v)) (* 2 (* r v))) a) 0) (= (- (- (+ (- (+ (* (* u u) u) (* r (* u u))) (* a u)) a) r) 1) 0) (= (+ (+ (- (- (- (+ (* (* v v) v) (* r (* v v))) (* a v)) (* 2 b)) a) r) 1) 0)))
(eliminate-quantifiers (exists u v))
(exit)
